;; ===================== PROJECTED CANON (QE) =====================
;; Each clause below is entailed by Proj = ∃W.F over the canonical vocabulary.
;; Units appear first for clarity; OR-clauses (SAT-filtered) follow.
;; ==================================================================

;; Unit Bool constraints (entailed)
(assert (not patient_has_finding_of_acromegaly_now))
(assert (not patient_has_finding_of_growth_hormone_deficiency_now))
(assert (not patient_has_finding_of_hypercortisolism_now))
(assert (not patient_has_finding_of_hyperthyroidism_now))
(assert (not patient_has_finding_of_hypoadrenalism_now))
(assert (not patient_has_finding_of_hypothyroidism_now))
(assert (not patient_has_finding_of_malignant_neoplastic_disease_now))
(assert (not patient_is_exposed_to_antidepressant_now))
(assert (not patient_has_diagnosis_of_anorexia_nervosa_inthehistory))
(assert (not patient_has_diagnosis_of_bulimia_nervosa_inthehistory))
